unsat
(define-fun SC ((s (_ BitVec 4)) (t (_ BitVec 4))) Bool (bvult #b0000 t))
0.09user 0.00system 0:00.10elapsed 99%CPU (0avgtext+0avgdata 27540maxresident)k
0inputs+8outputs (0major+1504minor)pagefaults 0swaps
